70 697
1 36 29 13 70 35 31 69 38 59 22 63 66 57 15 24 19 7 2 4 18 41 43 17 21 34 12 33 54 62 39 25 45 61 40 46 27 9 68 44 30 20 14 28 49 55 26 8 3 32 42 6 53 5 10 52 60 56 67 48 11 64 65 51 50 58 37 47 16 23 
